\* Toys_Problem *\
Maximize
Total_profit;_to_be_maximized: 25 Toy_A + 20 Toy_B
Subject To
Constraint_of_the_resource: 20 Toy_A + 12 Toy_B <= 2000
Constraint_of_the_time: 5 Toy_A + 5 Toy_B <= 540
Bounds
 0 <= Toy_A
 0 <= Toy_B
Generals
Toy_A
Toy_B
End
